
Gurobi 7.0.2 (win64, Python) logging started 07/23/18 00:34:57


Gurobi 7.0.2 (win64, Python) logging started 07/23/18 15:44:18


Gurobi 7.0.2 (win64, Python) logging started 07/24/18 11:02:45


Gurobi 7.0.2 (win64, Python) logging started 07/24/18 11:17:38


Gurobi 7.0.2 (win64, Python) logging started 07/24/18 11:30:47


Gurobi 7.0.2 (win64, Python) logging started 07/24/18 13:40:31


Gurobi 7.0.2 (win64, Python) logging started 07/24/18 13:41:30


Gurobi 7.0.2 (win64, Python) logging started 07/24/18 13:45:01


Gurobi 7.0.2 (win64, Python) logging started 07/24/18 13:47:47


Gurobi 7.0.2 (win64, Python) logging started 07/24/18 13:55:26


Gurobi 7.0.2 (win64, Python) logging started 07/24/18 14:56:15


Gurobi 7.0.2 (win64, Python) logging started 07/24/18 15:04:29


Gurobi 7.0.2 (win64, Python) logging started 07/24/18 15:06:53


Gurobi 7.0.2 (win64, Python) logging started 07/24/18 16:35:17


Gurobi 7.0.2 (win64, Python) logging started 07/24/18 17:17:35


Gurobi 7.0.2 (win64, Python) logging started 07/24/18 17:20:36


Gurobi 7.0.2 (win64, Python) logging started 07/24/18 17:57:07


Gurobi 7.0.2 (win64, Python) logging started 07/25/18 11:19:47


Gurobi 7.0.2 (win64, Python) logging started 07/25/18 11:21:01


Gurobi 7.0.2 (win64, Python) logging started 07/25/18 11:25:11


Gurobi 7.0.2 (win64, Python) logging started 07/25/18 14:46:09


Gurobi 7.0.2 (win64, Python) logging started 07/25/18 14:51:30


Gurobi 7.0.2 (win64, Python) logging started 07/25/18 14:57:03


Gurobi 7.0.2 (win64, Python) logging started 07/25/18 15:11:48

